c Result of efficient AIG-to-CNF conversion using package CNF
p cnf 520 2054
-2 3 304 0
-2 -3 -304 0
2 -3 304 0
2 3 -304 0
-3 4 216 0
-3 -4 -216 0
3 -4 216 0
3 4 -216 0
-4 -5 -185 0
-4 5 185 0
4 5 -185 0
4 -5 185 0
-5 -6 -150 0
-5 6 150 0
5 6 -150 0
5 -6 150 0
-6 7 115 0
-6 -7 -115 0
6 -7 115 0
6 7 -115 0
-7 -8 -114 0
-7 8 114 0
7 8 -114 0
7 -8 114 0
-8 9 84 0
-8 -9 -84 0
8 -9 84 0
8 9 -84 0
-9 10 70 0
-9 -10 -70 0
9 -10 70 0
9 10 -70 0
-10 11 46 0
-10 -11 -46 0
10 -11 46 0
10 11 -46 0
-11 12 34 0
-11 -12 -34 0
11 -12 34 0
11 12 -34 0
-12 13 21 0
-12 -13 -21 0
12 -13 21 0
12 13 -21 0
-13 14 16 0
-13 -14 -16 0
13 -14 16 0
13 14 -16 0
-14 15 0
14 -15 0
15 -505 508 -510 0
15 -505 -510 518 0
-15 505 0
-15 510 0
-15 -508 -518 0
-16 -17 -20 0
-16 17 20 0
16 17 -20 0
16 -17 20 0
-17 -18 -19 0
-17 18 19 0
17 18 -19 0
17 -18 19 0
18 -508 -513 0
-18 508 0
-18 513 0
19 -499 -504 0
-19 499 0
-19 504 0
20 -507 -516 0
-20 507 0
-20 516 0
-21 22 25 0
-21 25 29 0
-21 22 29 0
21 -22 -29 0
21 -25 -29 0
21 -22 -25 0
-22 -23 -24 0
-22 23 24 0
22 23 -24 0
22 -23 24 0
23 -505 -518 0
-23 505 0
-23 518 0
24 -508 -510 0
-24 508 0
-24 510 0
-25 26 28 0
-25 27 28 0
-25 26 27 0
25 -26 -27 0
25 -27 -28 0
25 -26 -28 0
26 -505 -517 0
-26 505 0
-26 517 0
27 -508 -518 0
-27 508 0
-27 518 0
28 -504 -510 0
-28 504 0
-28 510 0
-29 -30 -33 0
-29 30 33 0
29 30 -33 0
29 -30 33 0
-30 -31 -32 0
-30 31 32 0
30 31 -32 0
30 -31 32 0
31 -504 -513 0
-31 504 0
-31 513 0
32 -499 -507 0
-32 499 0
-32 507 0
33 -498 -516 0
-33 498 0
-33 516 0
-34 35 42 0
-34 -35 -42 0
34 -35 42 0
34 35 -42 0
-35 36 37 0
-35 -36 -37 0
35 -36 37 0
35 36 -37 0
-36 31 33 0
-36 32 33 0
-36 31 32 0
36 -31 -32 0
36 -32 -33 0
36 -31 -33 0
-37 -38 -41 0
-37 38 41 0
37 38 -41 0
37 -38 41 0
-38 -39 -40 0
-38 39 40 0
38 39 -40 0
38 -39 40 0
39 -498 -506 0
-39 498 0
-39 506 0
40 -500 -502 0
-40 500 0
-40 502 0
41 -503 -512 0
-41 503 0
-41 512 0
-42 43 45 0
-42 44 45 0
-42 43 44 0
42 -43 -44 0
42 -44 -45 0
42 -43 -45 0
43 -502 -506 0
-43 502 0
-43 506 0
44 -500 -512 0
-44 500 0
-44 512 0
45 -503 -514 0
-45 503 0
-45 514 0
-46 47 49 0
-46 49 61 0
-46 47 61 0
46 -47 -61 0
46 -49 -61 0
46 -47 -49 0
-47 29 48 0
-47 -29 -48 0
47 -29 48 0
47 29 -48 0
-48 22 25 0
-48 -22 -25 0
48 -22 25 0
48 22 -25 0
-49 50 52 0
-49 52 56 0
-49 50 56 0
49 -50 -56 0
49 -52 -56 0
49 -50 -52 0
-50 28 51 0
-50 -28 -51 0
50 -28 51 0
50 28 -51 0
-51 -26 -27 0
-51 26 27 0
51 26 -27 0
51 -26 27 0
-52 53 55 0
-52 54 55 0
-52 53 54 0
52 -53 -54 0
52 -54 -55 0
52 -53 -55 0
53 -508 -517 0
-53 508 0
-53 517 0
54 -504 -518 0
-54 504 0
-54 518 0
55 -507 -510 0
-55 507 0
-55 510 0
-56 -57 -60 0
-56 57 60 0
56 57 -60 0
56 -57 60 0
-57 -58 -59 0
-57 58 59 0
57 58 -59 0
57 -58 59 0
58 -507 -513 0
-58 507 0
-58 513 0
59 -498 -499 0
-59 498 0
-59 499 0
60 -502 -516 0
-60 502 0
-60 516 0
-61 62 66 0
-61 -62 -66 0
61 -62 66 0
61 62 -66 0
-62 63 64 0
-62 -63 -64 0
62 -63 64 0
62 63 -64 0
-63 58 60 0
-63 59 60 0
-63 58 59 0
63 -58 -59 0
63 -59 -60 0
63 -58 -60 0
-64 45 65 0
-64 -45 -65 0
64 -45 65 0
64 45 -65 0
-65 -43 -44 0
-65 43 44 0
65 43 -44 0
65 -43 44 0
-66 67 69 0
-66 68 69 0
-66 67 68 0
66 -67 -68 0
66 -68 -69 0
66 -67 -69 0
67 -506 -512 0
-67 506 0
-67 512 0
68 -500 -514 0
-68 500 0
-68 514 0
69 -503 -509 0
-69 503 0
-69 509 0
-70 -71 -78 0
-70 71 78 0
70 71 -78 0
70 -71 78 0
-71 72 73 0
-71 -72 -73 0
71 -72 73 0
71 72 -73 0
-72 63 64 0
-72 64 66 0
-72 63 66 0
72 -63 -66 0
72 -64 -66 0
72 -63 -64 0
-73 -74 -77 0
-73 74 77 0
73 74 -77 0
73 -74 77 0
-74 -75 -76 0
-74 75 76 0
74 75 -76 0
74 -75 76 0
75 -501 -514 0
-75 501 0
-75 514 0
76 -509 -519 0
-76 509 0
-76 519 0
77 -501 -509 -511 -519 0
-77 519 0
-77 501 0
-77 511 0
-77 509 0
78 -79 -82 0
-78 79 0
-78 82 0
-79 -80 -81 0
-79 80 81 0
79 80 -81 0
79 -80 81 0
80 -501 -509 0
-80 501 0
-80 509 0
81 -511 -519 0
-81 511 0
-81 519 0
82 -501 -511 -83 0
-82 501 0
-82 511 0
-82 83 0
83 -515 -519 0
-83 515 0
-83 519 0
-84 85 87 0
-84 87 111 0
-84 85 111 0
84 -85 -111 0
84 -87 -111 0
84 -85 -87 0
-85 61 86 0
-85 -61 -86 0
85 -61 86 0
85 61 -86 0
-86 47 49 0
-86 -47 -49 0
86 -47 49 0
86 47 -49 0
-87 88 90 0
-87 90 102 0
-87 88 102 0
87 -88 -102 0
87 -90 -102 0
87 -88 -90 0
-88 56 89 0
-88 -56 -89 0
88 -56 89 0
88 56 -89 0
-89 50 52 0
-89 -50 -52 0
89 -50 52 0
89 50 -52 0
-90 91 93 0
-90 93 97 0
-90 91 97 0
90 -91 -97 0
90 -93 -97 0
90 -91 -93 0
-91 55 92 0
-91 -55 -92 0
91 -55 92 0
91 55 -92 0
-92 -53 -54 0
-92 53 54 0
92 53 -54 0
92 -53 54 0
-93 94 96 0
-93 95 96 0
-93 94 95 0
93 -94 -95 0
93 -95 -96 0
93 -94 -96 0
94 -504 -517 0
-94 504 0
-94 517 0
95 -507 -518 0
-95 507 0
-95 518 0
96 -498 -510 0
-96 498 0
-96 510 0
-97 -98 -101 0
-97 98 101 0
97 98 -101 0
97 -98 101 0
-98 -99 -100 0
-98 99 100 0
98 99 -100 0
98 -99 100 0
99 -498 -513 0
-99 498 0
-99 513 0
100 -499 -502 0
-100 499 0
-100 502 0
101 -512 -516 0
-101 512 0
-101 516 0
-102 103 107 0
-102 -103 -107 0
102 -103 107 0
102 103 -107 0
-103 104 105 0
-103 -104 -105 0
103 -104 105 0
103 104 -105 0
-104 99 101 0
-104 100 101 0
-104 99 100 0
104 -99 -100 0
104 -100 -101 0
104 -99 -101 0
-105 69 106 0
-105 -69 -106 0
105 -69 106 0
105 69 -106 0
-106 -67 -68 0
-106 67 68 0
106 67 -68 0
106 -67 68 0
-107 108 110 0
-107 109 110 0
-107 108 109 0
107 -108 -109 0
107 -109 -110 0
107 -108 -110 0
108 -506 -514 0
-108 506 0
-108 514 0
109 -500 -509 0
-109 500 0
-109 509 0
110 -503 -511 0
-110 503 0
-110 511 0
-111 112 113 0
-111 -112 -113 0
111 -112 113 0
111 112 -113 0
-112 -79 -82 0
-112 79 82 0
112 79 -82 0
112 -79 82 0
-113 104 105 0
-113 105 107 0
-113 104 107 0
113 -104 -107 0
113 -105 -107 0
113 -104 -105 0
114 -112 -113 0
-114 112 0
-114 113 0
-115 116 118 0
-115 118 149 0
-115 116 149 0
115 -118 -149 0
115 -116 -118 0
115 -116 -149 0
-116 111 117 0
-116 -111 -117 0
116 -111 117 0
116 111 -117 0
-117 85 87 0
-117 -85 -87 0
117 -85 87 0
117 85 -87 0
-118 119 121 0
-118 121 145 0
-118 119 145 0
118 -119 -145 0
118 -121 -145 0
118 -119 -121 0
-119 102 120 0
-119 -102 -120 0
119 -102 120 0
119 102 -120 0
-120 88 90 0
-120 -88 -90 0
120 -88 90 0
120 88 -90 0
-121 122 124 0
-121 124 136 0
-121 122 136 0
121 -122 -136 0
121 -124 -136 0
121 -122 -124 0
-122 97 123 0
-122 -97 -123 0
122 -97 123 0
122 97 -123 0
-123 91 93 0
-123 -91 -93 0
123 -91 93 0
123 91 -93 0
-124 125 127 0
-124 127 131 0
-124 125 131 0
124 -125 -131 0
124 -127 -131 0
124 -125 -127 0
-125 96 126 0
-125 -96 -126 0
125 -96 126 0
125 96 -126 0
-126 -94 -95 0
-126 94 95 0
126 94 -95 0
126 -94 95 0
-127 128 130 0
-127 129 130 0
-127 128 129 0
127 -128 -129 0
127 -129 -130 0
127 -128 -130 0
128 -507 -517 0
-128 507 0
-128 517 0
129 -498 -518 0
-129 498 0
-129 518 0
130 -502 -510 0
-130 502 0
-130 510 0
-131 -132 -135 0
-131 132 135 0
131 132 -135 0
131 -132 135 0
-132 -133 -134 0
-132 133 134 0
132 133 -134 0
132 -133 134 0
133 -502 -513 0
-133 502 0
-133 513 0
134 -499 -512 0
-134 499 0
-134 512 0
135 -514 -516 0
-135 514 0
-135 516 0
-136 137 141 0
-136 -137 -141 0
136 -137 141 0
136 137 -141 0
-137 138 139 0
-137 -138 -139 0
137 -138 139 0
137 138 -139 0
-138 133 135 0
-138 134 135 0
-138 133 134 0
138 -133 -134 0
138 -134 -135 0
138 -133 -135 0
-139 110 140 0
-139 -110 -140 0
139 -110 140 0
139 110 -140 0
-140 -108 -109 0
-140 108 109 0
140 108 -109 0
140 -108 109 0
-141 142 144 0
-141 143 144 0
-141 142 143 0
141 -142 -143 0
141 -143 -144 0
141 -142 -144 0
142 -506 -509 0
-142 506 0
-142 509 0
143 -500 -511 0
-143 500 0
-143 511 0
144 -503 -515 0
-144 503 0
-144 515 0
-145 146 148 0
-145 -146 -148 0
145 -146 148 0
145 146 -148 0
-146 -147 -83 0
-146 147 83 0
146 147 -83 0
146 -147 83 0
147 -501 -511 0
-147 501 0
-147 511 0
-148 138 139 0
-148 139 141 0
-148 138 141 0
148 -138 -141 0
148 -139 -141 0
148 -138 -139 0
149 -146 -148 0
-149 146 0
-149 148 0
150 -151 -153 0
-150 151 0
-150 153 0
-151 149 152 0
-151 -149 -152 0
151 -149 152 0
151 149 -152 0
-152 116 118 0
-152 -116 -118 0
152 -116 118 0
152 116 -118 0
-153 154 156 0
-153 156 184 0
-153 154 184 0
153 -156 -184 0
153 -154 -156 0
153 -154 -184 0
-154 145 155 0
-154 -145 -155 0
154 -145 155 0
154 145 -155 0
-155 119 121 0
-155 -119 -121 0
155 -119 121 0
155 119 -121 0
-156 157 159 0
-156 159 181 0
-156 157 181 0
156 -157 -181 0
156 -159 -181 0
156 -157 -159 0
-157 136 158 0
-157 -136 -158 0
157 -136 158 0
157 136 -158 0
-158 122 124 0
-158 -122 -124 0
158 -122 124 0
158 122 -124 0
-159 160 162 0
-159 162 174 0
-159 160 174 0
159 -160 -174 0
159 -162 -174 0
159 -160 -162 0
-160 131 161 0
-160 -131 -161 0
160 -131 161 0
160 131 -161 0
-161 125 127 0
-161 -125 -127 0
161 -125 127 0
161 125 -127 0
-162 163 165 0
-162 165 169 0
-162 163 169 0
162 -163 -169 0
162 -165 -169 0
162 -163 -165 0
-163 130 164 0
-163 -130 -164 0
163 -130 164 0
163 130 -164 0
-164 -128 -129 0
-164 128 129 0
164 128 -129 0
164 -128 129 0
-165 166 168 0
-165 167 168 0
-165 166 167 0
165 -166 -167 0
165 -167 -168 0
165 -166 -168 0
166 -498 -517 0
-166 498 0
-166 517 0
167 -502 -518 0
-167 502 0
-167 518 0
168 -510 -512 0
-168 510 0
-168 512 0
-169 -170 -173 0
-169 170 173 0
169 170 -173 0
169 -170 173 0
-170 -171 -172 0
-170 171 172 0
170 171 -172 0
170 -171 172 0
171 -512 -513 0
-171 512 0
-171 513 0
172 -499 -514 0
-172 499 0
-172 514 0
173 -509 -516 0
-173 509 0
-173 516 0
-174 -175 -179 0
-174 175 179 0
174 175 -179 0
174 -175 179 0
-175 176 177 0
-175 -176 -177 0
175 -176 177 0
175 176 -177 0
-176 171 173 0
-176 172 173 0
-176 171 172 0
176 -171 -172 0
176 -172 -173 0
176 -171 -173 0
-177 144 178 0
-177 -144 -178 0
177 -144 178 0
177 144 -178 0
-178 -142 -143 0
-178 142 143 0
178 142 -143 0
178 -142 143 0
179 -506 -511 -180 0
-179 506 0
-179 511 0
-179 180 0
180 -500 -515 0
-180 500 0
-180 515 0
-181 182 183 0
-181 -182 -183 0
181 -182 183 0
181 182 -183 0
182 -501 -515 0
-182 501 0
-182 515 0
-183 176 177 0
-183 177 179 0
-183 176 179 0
183 -177 -179 0
183 -176 -177 0
183 -176 -179 0
184 -182 -183 0
-184 182 0
-184 183 0
185 -186 -187 0
-185 186 0
-185 187 0
-186 151 153 0
-186 -151 -153 0
186 -151 153 0
186 151 -153 0
187 -188 -190 0
-187 188 0
-187 190 0
-188 184 189 0
-188 -184 -189 0
188 -184 189 0
188 184 -189 0
-189 154 156 0
-189 -154 -156 0
189 -154 156 0
189 154 -156 0
190 -191 -193 0
-190 191 0
-190 193 0
-191 181 192 0
-191 -181 -192 0
191 -181 192 0
191 181 -192 0
-192 157 159 0
-192 -157 -159 0
192 -157 159 0
192 157 -159 0
-193 194 196 0
-193 196 215 0
-193 194 215 0
193 -196 -215 0
193 -194 -196 0
193 -194 -215 0
-194 174 195 0
-194 -174 -195 0
194 -174 195 0
194 174 -195 0
-195 160 162 0
-195 -160 -162 0
195 -160 162 0
195 160 -162 0
-196 197 199 0
-196 199 211 0
-196 197 211 0
196 -197 -211 0
196 -199 -211 0
196 -197 -199 0
-197 169 198 0
-197 -169 -198 0
197 -169 198 0
197 169 -198 0
-198 163 165 0
-198 -163 -165 0
198 -163 165 0
198 163 -165 0
-199 200 202 0
-199 202 206 0
-199 200 206 0
199 -200 -206 0
199 -202 -206 0
199 -200 -202 0
-200 168 201 0
-200 -168 -201 0
200 -168 201 0
200 168 -201 0
-201 -166 -167 0
-201 166 167 0
201 166 -167 0
201 -166 167 0
-202 203 205 0
-202 204 205 0
-202 203 204 0
202 -203 -204 0
202 -204 -205 0
202 -203 -205 0
203 -502 -517 0
-203 502 0
-203 517 0
204 -512 -518 0
-204 512 0
-204 518 0
205 -510 -514 0
-205 510 0
-205 514 0
-206 -207 -210 0
-206 207 210 0
206 207 -210 0
206 -207 210 0
-207 -208 -209 0
-207 208 209 0
207 208 -209 0
207 -208 209 0
208 -513 -514 0
-208 513 0
-208 514 0
209 -499 -509 0
-209 499 0
-209 509 0
210 -511 -516 0
-210 511 0
-210 516 0
-211 212 214 0
-211 -212 -214 0
211 -212 214 0
211 212 -214 0
-212 -213 -180 0
-212 213 180 0
212 213 -180 0
212 -213 180 0
213 -506 -511 0
-213 506 0
-213 511 0
-214 208 210 0
-214 209 210 0
-214 208 209 0
214 -208 -209 0
214 -209 -210 0
214 -208 -210 0
215 -212 -214 0
-215 212 0
-215 214 0
-216 217 218 273 0
-216 217 247 273 0
-216 218 247 273 0
216 -217 -218 0
216 -218 -247 0
216 -273 0
216 -217 -247 0
-217 -186 -187 0
-217 186 187 0
217 186 -187 0
217 -186 187 0
218 -219 -220 0
-218 219 0
-218 220 0
-219 -188 -190 0
-219 188 190 0
219 188 -190 0
219 -188 190 0
220 -221 -222 0
-220 221 0
-220 222 0
-221 191 193 0
-221 -191 -193 0
221 -191 193 0
221 191 -193 0
222 -223 -225 0
-222 223 0
-222 225 0
-223 215 224 0
-223 -215 -224 0
223 -215 224 0
223 215 -224 0
-224 194 196 0
-224 -194 -196 0
224 -194 196 0
224 194 -196 0
-225 226 228 0
-225 228 246 0
-225 226 246 0
225 -228 -246 0
225 -226 -228 0
225 -226 -246 0
-226 211 227 0
-226 -211 -227 0
226 -211 227 0
226 211 -227 0
-227 197 199 0
-227 -197 -199 0
227 -197 199 0
227 197 -199 0
-228 229 231 0
-228 231 243 0
-228 229 243 0
228 -229 -243 0
228 -231 -243 0
228 -229 -231 0
-229 206 230 0
-229 -206 -230 0
229 -206 230 0
229 206 -230 0
-230 200 202 0
-230 -200 -202 0
230 -200 202 0
230 200 -202 0
-231 232 234 0
-231 234 238 0
-231 232 238 0
231 -232 -238 0
231 -234 -238 0
231 -232 -234 0
-232 205 233 0
-232 -205 -233 0
232 -205 233 0
232 205 -233 0
-233 -203 -204 0
-233 203 204 0
233 203 -204 0
233 -203 204 0
-234 235 237 0
-234 236 237 0
-234 235 236 0
234 -235 -236 0
234 -236 -237 0
234 -235 -237 0
235 -512 -517 0
-235 512 0
-235 517 0
236 -514 -518 0
-236 514 0
-236 518 0
237 -509 -510 0
-237 509 0
-237 510 0
-238 -239 -242 0
-238 239 242 0
238 239 -242 0
238 -239 242 0
-239 -240 -241 0
-239 240 241 0
239 240 -241 0
239 -240 241 0
240 -509 -513 0
-240 509 0
-240 513 0
241 -499 -511 0
-241 499 0
-241 511 0
242 -515 -516 0
-242 515 0
-242 516 0
-243 244 245 0
-243 -244 -245 0
243 -244 245 0
243 244 -245 0
244 -506 -515 0
-244 506 0
-244 515 0
-245 240 242 0
-245 241 242 0
-245 240 241 0
245 -240 -241 0
245 -241 -242 0
245 -240 -242 0
246 -244 -245 0
-246 244 0
-246 245 0
247 -248 -249 0
-247 248 0
-247 249 0
-248 -219 -220 0
-248 219 220 0
248 219 -220 0
248 -219 220 0
249 -250 -251 0
-249 250 0
-249 251 0
-250 -221 -222 0
-250 221 222 0
250 221 -222 0
250 -221 222 0
251 -252 -253 0
-251 252 0
-251 253 0
-252 223 225 0
-252 -223 -225 0
252 -223 225 0
252 223 -225 0
253 -254 -256 0
-253 254 0
-253 256 0
-254 246 255 0
-254 -246 -255 0
254 -246 255 0
254 246 -255 0
-255 226 228 0
-255 -226 -228 0
255 -226 228 0
255 226 -228 0
256 -257 -259 0
-256 257 0
-256 259 0
-257 243 258 0
-257 -243 -258 0
257 -243 258 0
257 243 -258 0
-258 229 231 0
-258 -229 -231 0
258 -229 231 0
258 229 -231 0
-259 260 262 0
-259 262 272 0
-259 260 272 0
259 -262 -272 0
259 -260 -262 0
259 -260 -272 0
-260 238 261 0
-260 -238 -261 0
260 -238 261 0
260 238 -261 0
-261 232 234 0
-261 -232 -234 0
261 -232 234 0
261 232 -234 0
-262 263 265 0
-262 265 269 0
-262 263 269 0
262 -263 -269 0
262 -265 -269 0
262 -263 -265 0
-263 237 264 0
-263 -237 -264 0
263 -237 264 0
263 237 -264 0
-264 -235 -236 0
-264 235 236 0
264 235 -236 0
264 -235 236 0
-265 266 268 0
-265 267 268 0
-265 266 267 0
265 -266 -267 0
265 -267 -268 0
265 -266 -268 0
266 -514 -517 0
-266 514 0
-266 517 0
267 -509 -518 0
-267 509 0
-267 518 0
268 -510 -511 0
-268 510 0
-268 511 0
-269 -270 -271 0
-269 270 271 0
269 270 -271 0
269 -270 271 0
270 -511 -513 0
-270 511 0
-270 513 0
271 -499 -515 0
-271 499 0
-271 515 0
272 -511 -513 -271 0
-272 511 0
-272 513 0
-272 271 0
273 -274 -248 249 -275 0
273 -274 248 -249 -275 0
-273 275 0
-273 248 249 0
-273 274 0
-273 -248 -249 0
-274 -217 -218 0
-274 217 218 0
274 217 -218 0
274 -217 218 0
-275 277 278 0
-275 278 296 0
-275 276 0
-275 277 296 0
275 -276 -277 -296 0
275 -276 -278 -296 0
275 -276 -277 -278 0
-276 -250 -251 0
-276 250 251 0
276 250 -251 0
276 -250 251 0
-277 -252 -253 0
-277 252 253 0
277 252 -253 0
277 -252 253 0
278 -279 -280 0
-278 279 0
-278 280 0
-279 -254 -256 0
-279 254 256 0
279 254 -256 0
279 -254 256 0
280 -281 -282 0
-280 281 0
-280 282 0
-281 257 259 0
-281 -257 -259 0
281 -257 259 0
281 257 -259 0
282 -283 -285 0
-282 283 0
-282 285 0
-283 272 284 0
-283 -272 -284 0
283 -272 284 0
283 272 -284 0
-284 260 262 0
-284 -260 -262 0
284 -260 262 0
284 260 -262 0
285 -286 -288 0
-285 286 0
-285 288 0
-286 269 287 0
-286 -269 -287 0
286 -269 287 0
286 269 -287 0
-287 263 265 0
-287 -263 -265 0
287 -263 265 0
287 263 -265 0
-288 289 291 0
-288 291 295 0
-288 289 295 0
288 -291 -295 0
288 -289 -291 0
288 -289 -295 0
-289 268 290 0
-289 -268 -290 0
289 -268 290 0
289 268 -290 0
-290 -266 -267 0
-290 266 267 0
290 266 -267 0
290 -266 267 0
-291 292 294 0
-291 293 294 0
-291 292 293 0
291 -292 -293 0
291 -293 -294 0
291 -292 -294 0
292 -509 -517 0
-292 509 0
-292 517 0
293 -511 -518 0
-293 511 0
-293 518 0
294 -510 -515 0
-294 510 0
-294 515 0
295 -513 -515 0
-295 513 0
-295 515 0
296 -279 280 -297 -298 0
296 279 -280 -297 -298 0
-296 297 0
-296 -279 -280 0
-296 298 0
-296 279 280 0
-297 -281 -282 0
-297 281 282 0
297 281 -282 0
297 -281 282 0
298 -283 286 -288 -299 0
298 -283 -286 288 -299 0
-298 299 0
-298 286 288 0
-298 283 0
-298 -286 -288 0
299 294 -300 -301 -303 0
299 -294 300 -301 -303 0
-299 301 0
-299 294 300 0
-299 303 0
-299 -294 -300 0
-300 -292 -293 0
-300 292 293 0
300 292 -293 0
300 -292 293 0
-301 295 302 0
-301 -295 -302 0
301 -295 302 0
301 295 -302 0
-302 289 291 0
-302 -289 -291 0
302 -289 291 0
302 289 -291 0
303 -511 -515 -517 -518 0
-303 518 0
-303 511 0
-303 517 0
-303 515 0
-304 305 387 0
-304 -305 -387 0
304 -305 387 0
304 305 -387 0
-305 306 367 0
-305 -306 -367 0
305 -306 367 0
305 306 -367 0
-306 307 324 0
-306 324 349 0
-306 307 349 0
306 -307 -349 0
306 -324 -349 0
306 -307 -324 0
-307 -308 -319 0
-307 308 319 0
307 308 -319 0
307 -308 319 0
-308 -309 -314 0
-308 309 314 0
308 309 -314 0
308 -309 314 0
309 310 -312 0
309 -310 -313 0
-309 -310 313 0
-309 310 312 0
-310 510 311 0
-310 513 -311 0
310 -513 -311 0
310 -510 311 0
311 504 -507 0
311 -504 507 0
-311 -504 -507 0
-311 504 507 0
312 507 -508 0
312 504 -508 0
-312 508 0
-312 -504 -507 0
313 -504 508 0
313 -507 508 0
-313 -508 0
-313 504 507 0
314 315 -317 0
314 -315 -318 0
-314 -315 318 0
-314 315 317 0
-315 499 316 0
-315 516 -316 0
315 -516 -316 0
315 -499 316 0
316 498 -502 0
316 -498 502 0
-316 -498 -502 0
-316 498 502 0
317 502 -507 0
317 498 -507 0
-317 507 0
-317 -498 -502 0
318 -498 507 0
318 -502 507 0
-318 -507 0
-318 498 502 0
319 320 -322 0
319 -320 -323 0
-319 -320 323 0
-319 320 322 0
-320 506 321 0
-320 500 -321 0
320 -506 321 0
320 -500 -321 0
321 512 -514 0
321 -512 514 0
-321 -512 -514 0
-321 512 514 0
322 -502 514 0
322 -502 512 0
-322 502 0
-322 -512 -514 0
323 502 -512 0
323 502 -514 0
-323 -502 0
-323 512 514 0
-324 325 332 0
-324 332 342 0
-324 325 342 0
324 -332 -342 0
324 -325 -332 0
324 -325 -342 0
325 -326 -329 0
-325 326 0
-325 329 0
326 -511 327 0
326 -327 -328 0
-326 511 327 0
-326 -327 328 0
-327 503 515 0
-327 501 -515 0
327 -503 515 0
327 -501 -515 0
328 511 -515 0
-328 -511 0
-328 515 0
329 -312 -330 0
-329 312 0
-329 330 0
330 -328 -331 0
330 -511 331 0
-330 328 -331 0
-330 511 331 0
-331 500 515 0
-331 503 -515 0
331 -503 -515 0
331 -500 515 0
-332 -333 -337 0
-332 333 337 0
332 333 -337 0
332 -333 337 0
-333 -334 -335 0
-333 334 335 0
333 334 -335 0
333 -334 335 0
334 505 -508 -517 0
334 -505 508 -517 0
-334 517 0
-334 505 508 0
-334 -505 -508 0
335 -328 -336 0
335 -511 336 0
-335 328 -336 0
-335 511 336 0
-336 -515 519 0
-336 501 515 0
336 -515 -519 0
336 -501 515 0
337 338 -340 0
337 -338 -341 0
-337 -338 341 0
-337 338 340 0
-338 500 339 0
-338 503 -339 0
338 -503 -339 0
338 -500 339 0
339 509 -511 0
339 -509 511 0
-339 -509 -511 0
-339 509 511 0
340 511 -514 0
340 509 -514 0
-340 514 0
-340 -509 -511 0
341 -509 514 0
341 -511 514 0
-341 -514 0
-341 509 511 0
-342 343 347 0
-342 345 347 0
-342 343 345 0
342 -343 -345 0
342 -345 -347 0
342 -343 -347 0
343 -318 -344 0
343 -317 344 0
-343 318 -344 0
-343 317 344 0
-344 510 316 0
-344 513 -316 0
344 -513 -316 0
344 -510 316 0
345 -313 -346 0
345 -312 346 0
-345 313 -346 0
-345 312 346 0
-346 517 311 0
-346 518 -311 0
346 -518 -311 0
346 -517 311 0
347 -323 -348 0
347 -322 348 0
-347 323 -348 0
-347 322 348 0
-348 499 321 0
-348 516 -321 0
348 -516 -321 0
348 -499 321 0
-349 350 360 0
-349 -350 -360 0
349 -350 360 0
349 350 -360 0
-350 351 352 0
-350 -351 -352 0
350 -351 352 0
350 351 -352 0
-351 334 337 0
-351 335 337 0
-351 334 335 0
351 -334 -335 0
351 -335 -337 0
351 -334 -337 0
-352 -353 -358 0
-352 353 358 0
352 353 -358 0
352 -353 358 0
-353 -354 -357 0
-353 354 357 0
353 354 -357 0
353 -354 357 0
354 -517 -355 356 0
354 -518 -355 -356 0
-354 355 0
-354 518 -356 0
-354 517 356 0
-355 505 508 0
355 -505 0
355 -508 0
356 505 -508 0
356 -505 508 0
-356 -505 -508 0
-356 505 508 0
357 -511 -515 0
357 -511 519 0
-357 511 0
-357 515 -519 0
358 -341 -359 0
358 -340 359 0
-358 341 -359 0
-358 340 359 0
-359 503 339 0
-359 501 -339 0
359 -503 339 0
359 -501 -339 0
-360 361 365 0
-360 363 365 0
-360 361 363 0
360 -361 -363 0
360 -363 -365 0
360 -361 -365 0
361 -313 -362 0
361 -312 362 0
-361 313 -362 0
-361 312 362 0
-362 518 311 0
-362 510 -311 0
362 -518 311 0
362 -510 -311 0
363 -318 -364 0
363 -317 364 0
-363 318 -364 0
-363 317 364 0
-364 513 316 0
-364 499 -316 0
364 -513 316 0
364 -499 -316 0
365 -323 -366 0
365 -322 366 0
-365 323 -366 0
-365 322 366 0
-366 516 321 0
-366 506 -321 0
366 -516 321 0
366 -506 -321 0
-367 368 378 0
-367 -368 -378 0
367 -368 378 0
367 368 -378 0
-368 369 377 0
-368 -369 -377 0
368 -369 377 0
368 369 -377 0
-369 -370 -375 0
-369 370 375 0
369 370 -375 0
369 -370 375 0
-370 -371 -373 0
-370 371 373 0
370 371 -373 0
370 -371 373 0
371 -313 -372 0
371 -312 372 0
-371 313 -372 0
-371 312 372 0
-372 513 311 0
-372 499 -311 0
372 -513 311 0
372 -499 -311 0
373 -318 -374 0
373 -317 374 0
-373 318 -374 0
-373 317 374 0
-374 516 316 0
-374 506 -316 0
374 -516 316 0
374 -506 -316 0
375 -323 -376 0
375 -322 376 0
-375 323 -376 0
-375 322 376 0
-376 500 321 0
-376 503 -321 0
376 -503 -321 0
376 -500 321 0
-377 351 352 0
-377 352 360 0
-377 351 360 0
377 -351 -360 0
377 -352 -360 0
377 -351 -352 0
-378 379 386 0
-378 -379 -386 0
378 -379 386 0
378 379 -386 0
-379 380 381 0
-379 -380 -381 0
379 -380 381 0
379 380 -381 0
-380 354 358 0
-380 357 358 0
-380 354 357 0
380 -354 -357 0
380 -357 -358 0
380 -354 -358 0
-381 -382 -384 0
-381 382 384 0
381 382 -384 0
381 -382 384 0
-382 -511 -383 0
-382 511 383 0
382 511 -383 0
382 -511 383 0
383 -510 -355 -356 0
383 -518 -355 356 0
-383 355 0
-383 510 -356 0
-383 518 356 0
384 -341 -385 0
384 -340 385 0
-384 341 -385 0
-384 340 385 0
-385 501 339 0
-385 519 -339 0
385 -519 -339 0
385 -501 339 0
-386 309 319 0
-386 314 319 0
-386 309 314 0
386 -309 -314 0
386 -314 -319 0
386 -309 -319 0
-387 388 402 0
-387 402 404 0
-387 388 404 0
387 -388 -404 0
387 -402 -404 0
387 -388 -402 0
-388 389 391 0
-388 391 400 0
-388 389 400 0
388 -389 -400 0
388 -391 -400 0
388 -389 -391 0
-389 365 390 0
-389 -365 -390 0
389 -365 390 0
389 365 -390 0
-390 -361 -363 0
-390 361 363 0
390 361 -363 0
390 -361 363 0
-391 392 395 0
-391 392 393 0
-391 393 395 0
391 -393 -395 0
391 -392 -395 0
391 -392 -393 0
-392 -326 -329 0
-392 326 329 0
392 326 -329 0
392 -326 329 0
393 -341 -394 0
393 -340 394 0
-393 341 -394 0
-393 340 394 0
-394 506 339 0
-394 500 -339 0
394 -506 339 0
394 -500 -339 0
-395 397 399 0
-395 396 397 0
-395 396 399 0
395 -396 -397 0
395 -397 -399 0
395 -396 -399 0
-396 -312 -330 0
-396 312 330 0
396 312 -330 0
396 -312 330 0
397 -318 -398 0
397 -317 398 0
-397 318 -398 0
-397 317 398 0
-398 518 316 0
-398 510 -316 0
398 -518 316 0
398 -510 -316 0
399 517 -312 0
399 -517 -311 -313 0
399 311 -312 0
-399 517 312 0
-399 311 312 0
-399 -517 -311 313 0
-400 342 401 0
-400 -342 -401 0
400 -342 401 0
400 342 -401 0
-401 325 332 0
-401 -325 -332 0
401 -325 332 0
401 325 -332 0
-402 349 403 0
-402 -349 -403 0
402 -349 403 0
402 349 -403 0
-403 307 324 0
-403 -307 -324 0
403 -307 324 0
403 307 -324 0
-404 405 421 0
-404 421 423 0
-404 405 423 0
404 -405 -423 0
404 -421 -423 0
404 -405 -421 0
-405 406 408 0
-405 408 419 0
-405 406 419 0
405 -406 -419 0
405 -408 -419 0
405 -406 -408 0
-406 347 407 0
-406 -347 -407 0
406 -347 407 0
406 347 -407 0
-407 -343 -345 0
-407 343 345 0
407 343 -345 0
407 -343 345 0
-408 409 417 0
-408 415 417 0
-408 409 415 0
408 -409 -415 0
408 -415 -417 0
408 -409 -417 0
409 -410 -412 0
-409 410 0
-409 412 0
410 -328 -411 0
410 -511 411 0
-410 328 -411 0
-410 511 411 0
-411 506 515 0
-411 500 -515 0
411 -506 515 0
411 -500 -515 0
412 -317 -413 0
-412 317 0
-412 413 0
413 -328 -414 0
413 -511 414 0
-413 328 -414 0
-413 511 414 0
-414 506 -515 0
-414 515 516 0
414 -506 -515 0
414 515 -516 0
415 -323 -416 0
415 -322 416 0
-415 323 -416 0
-415 322 416 0
-416 513 321 0
-416 499 -321 0
416 -513 321 0
416 -499 -321 0
417 -341 -418 0
417 -340 418 0
-417 341 -418 0
-417 340 418 0
-418 516 339 0
-418 506 -339 0
418 -516 339 0
418 -506 -339 0
-419 395 420 0
-419 -395 -420 0
419 -395 420 0
419 395 -420 0
-420 -392 -393 0
-420 392 393 0
420 392 -393 0
420 -392 393 0
-421 400 422 0
-421 -400 -422 0
421 -400 422 0
421 400 -422 0
-422 389 391 0
-422 -389 -391 0
422 -389 391 0
422 389 -391 0
-423 424 436 0
-423 436 438 0
-423 424 438 0
423 -424 -438 0
423 -436 -438 0
423 -424 -436 0
-424 425 432 0
-424 432 434 0
-424 425 434 0
424 -425 -434 0
424 -432 -434 0
424 -425 -432 0
-425 426 430 0
-425 428 430 0
-425 426 428 0
425 -426 -428 0
425 -428 -430 0
425 -426 -430 0
426 -341 -427 0
426 -340 427 0
-426 341 -427 0
-426 340 427 0
-427 499 339 0
-427 516 -339 0
427 -516 -339 0
427 -499 339 0
428 -318 -429 0
428 -317 429 0
-428 318 -429 0
-428 317 429 0
-429 517 316 0
-429 518 -316 0
429 -518 -316 0
429 -517 316 0
430 -323 -431 0
430 -322 431 0
-430 323 -431 0
-430 322 431 0
-431 510 321 0
-431 513 -321 0
431 -513 -321 0
431 -510 321 0
-432 399 433 0
-432 -399 -433 0
432 -399 433 0
432 399 -433 0
-433 -396 -397 0
-433 396 397 0
433 396 -397 0
433 -396 397 0
-434 417 435 0
-434 -417 -435 0
434 -417 435 0
434 417 -435 0
-435 -409 -415 0
-435 409 415 0
435 409 -415 0
435 -409 415 0
-436 419 437 0
-436 -419 -437 0
436 -419 437 0
436 419 -437 0
-437 406 408 0
-437 -406 -408 0
437 -406 408 0
437 406 -408 0
-438 439 448 0
-438 448 450 0
-438 439 450 0
438 -439 -450 0
438 -448 -450 0
438 -439 -448 0
-439 440 441 0
-439 441 446 0
-439 440 446 0
439 -440 -446 0
439 -441 -446 0
439 -440 -441 0
-440 -410 -412 0
-440 410 412 0
440 410 -412 0
440 -410 412 0
-441 443 445 0
-441 442 443 0
-441 442 445 0
441 -442 -443 0
441 -443 -445 0
441 -442 -445 0
-442 -317 -413 0
-442 317 413 0
442 317 -413 0
442 -317 413 0
443 -323 -444 0
443 -322 444 0
-443 323 -444 0
-443 322 444 0
-444 518 321 0
-444 510 -321 0
444 -518 321 0
444 -510 -321 0
445 517 -317 0
445 -517 -316 -318 0
445 316 -317 0
-445 517 317 0
-445 316 317 0
-445 -517 -316 318 0
-446 430 447 0
-446 -430 -447 0
446 -430 447 0
446 430 -447 0
-447 -426 -428 0
-447 426 428 0
447 426 -428 0
447 -426 428 0
-448 434 449 0
-448 -434 -449 0
448 -434 449 0
448 434 -449 0
-449 425 432 0
-449 -425 -432 0
449 -425 432 0
449 425 -432 0
-450 451 462 0
-450 462 464 0
-450 451 464 0
450 -451 -464 0
450 -462 -464 0
450 -451 -462 0
-451 458 460 0
-451 452 458 0
-451 452 460 0
451 -452 -458 0
451 -458 -460 0
451 -452 -460 0
452 -453 -455 0
-452 453 0
-452 455 0
453 -328 -454 0
453 -511 454 0
-453 328 -454 0
-453 511 454 0
-454 -515 516 0
-454 499 515 0
454 -515 -516 0
454 -499 515 0
455 -322 -456 0
-455 322 0
-455 456 0
456 -328 -457 0
456 -511 457 0
-456 328 -457 0
-456 511 457 0
-457 513 515 0
-457 499 -515 0
457 -513 515 0
457 -499 -515 0
458 -341 -459 0
458 -340 459 0
-458 341 -459 0
-458 340 459 0
-459 513 339 0
-459 499 -339 0
459 -513 339 0
459 -499 -339 0
-460 445 461 0
-460 -445 -461 0
460 -445 461 0
460 445 -461 0
-461 -442 -443 0
-461 442 443 0
461 442 -443 0
461 -442 443 0
-462 446 463 0
-462 -446 -463 0
462 -446 463 0
462 446 -463 0
-463 440 441 0
-463 -440 -441 0
463 -440 441 0
463 440 -441 0
-464 465 471 0
-464 471 473 0
-464 465 473 0
464 -465 -473 0
464 -471 -473 0
464 -465 -471 0
-465 467 469 0
-465 466 467 0
-465 466 469 0
465 -466 -467 0
465 -467 -469 0
465 -466 -469 0
-466 -453 -455 0
-466 453 455 0
466 453 -455 0
466 -453 455 0
467 -323 -468 0
467 -322 468 0
-467 323 -468 0
-467 322 468 0
-468 517 321 0
-468 518 -321 0
468 -518 -321 0
468 -517 321 0
469 -341 -470 0
469 -340 470 0
-469 341 -470 0
-469 340 470 0
-470 510 339 0
-470 513 -339 0
470 -513 -339 0
470 -510 339 0
-471 460 472 0
-471 -460 -472 0
471 -460 472 0
471 460 -472 0
-472 -452 -458 0
-472 452 458 0
472 452 -458 0
472 -452 458 0
-473 474 479 0
-473 479 481 0
-473 474 481 0
473 -474 -481 0
473 -479 -481 0
473 -474 -479 0
-474 476 478 0
-474 475 476 0
-474 475 478 0
474 -475 -476 0
474 -476 -478 0
474 -475 -478 0
-475 -322 -456 0
-475 322 456 0
475 322 -456 0
475 -322 456 0
476 -341 -477 0
476 -340 477 0
-476 341 -477 0
-476 340 477 0
-477 518 339 0
-477 510 -339 0
477 -518 339 0
477 -510 -339 0
478 517 -322 0
478 -517 -321 -323 0
478 321 -322 0
-478 517 322 0
-478 321 322 0
-478 -517 -321 323 0
-479 469 480 0
-479 -469 -480 0
479 -469 480 0
479 469 -480 0
-480 -466 -467 0
-480 466 467 0
480 466 -467 0
480 -466 467 0
-481 482 488 0
-481 488 490 0
-481 482 490 0
481 -488 -490 0
481 -482 -488 0
481 -482 -490 0
482 -483 -485 0
-482 483 0
-482 485 0
483 -328 -484 0
483 -511 484 0
-483 328 -484 0
-483 511 484 0
-484 510 515 0
-484 513 -515 0
484 -513 -515 0
484 -510 515 0
485 -340 -486 0
-485 340 0
-485 486 0
486 -328 -487 0
486 -511 487 0
-486 328 -487 0
-486 511 487 0
-487 510 -515 0
-487 515 518 0
487 -510 -515 0
487 515 -518 0
-488 478 489 0
-488 -478 -489 0
488 -478 489 0
488 478 -489 0
-489 -475 -476 0
-489 475 476 0
489 475 -476 0
489 -475 476 0
-490 491 494 0
-490 491 492 0
-490 492 494 0
490 -492 -494 0
490 -491 -494 0
490 -491 -492 0
-491 -483 -485 0
-491 483 485 0
491 483 -485 0
491 -483 485 0
492 -341 -493 0
492 -340 493 0
-492 341 -493 0
-492 340 493 0
-493 517 339 0
-493 518 -339 0
493 -518 -339 0
493 -517 339 0
-494 496 497 0
-494 495 496 0
-494 495 497 0
494 -495 -496 0
494 -496 -497 0
494 -495 -497 0
-495 -340 -486 0
-495 340 486 0
495 340 -486 0
495 -340 486 0
496 517 -340 0
496 -517 -339 -341 0
496 339 -340 0
-496 517 340 0
-496 339 340 0
-496 -517 -339 341 0
497 -511 515 517 0
497 -511 517 518 0
-497 511 0
-497 -517 0
-497 -515 -518 0
-520 0
2 0

